;; produced by cvc5.drv ;;
(set-logic ALL)
(set-info :smt-lib-version 2.6)
;;; generated by SMT-LIB2 driver
;;; SMT-LIB2 driver: bit-vectors, common part
;;; SMT-LIB2: integer arithmetic
(define-fun __cdiv ((x Int) (y Int)) Int (ite (>= x 0) (div x y) (- (div (- x) y))))
(define-fun __cmod ((x Int) (y Int)) Int (ite (>= x 0) (mod x y) (- (mod (- x) y))))
(declare-sort us_private 0)

(declare-const us_null_ext__ us_private)

;; "mod"
(define-fun mod1 ((x Int) (y Int)) Int
  (ite (<= 0 y) (mod x y) (- (mod (- x) y))))

;; "in_range"
(define-fun in_range ((x Int)) Bool
  (and (<= 1 x) (<= x 2147483647)))

;; "divides"
(declare-fun divides (Int
  Int) Bool)

;; "divides__function_guard"
(declare-fun divides__function_guard (Bool
  Int
  Int) Bool)

(declare-const a Int)

(declare-const b Int)

(declare-const x Int)

;; "divides__post_axiom"
(assert true)

;; "divides__def_axiom"
(assert
  (forall ((param__a Int) (param__b Int))
    (! (=
         (= (divides param__a param__b) true)
         (= (mod1 param__b param__a) 0)) :pattern ((divides
                                                     param__a
                                                     param__b)) )))

;; Goal "def'vc"
;; File "math_euclid.adb", line 23, characters 0-0
(assert
  (not
  (=>
    (in_range a)
    (=>
      (in_range b)
      (=>
        (in_range x)
        (=>
          (divides__function_guard (divides b a) b a)
          (=>
            (forall ((temp___249 Int))
              (divides__function_guard (divides x temp___249) x temp___249))
            (=>
              (divides__function_guard (divides x b) x b)
              (=>
                (and
                  (and
                    (not (= (divides b a) true))
                    (= (let ((temp___249 (mod1 a b))) (divides x temp___249)) true))
                  (= (divides x b) true))
                (=>
                  (divides__function_guard (divides x a) x a)
                  (= (divides x a) true)))))))))))

(check-sat)
(get-info :reason-unknown)
